(set-option :produce-models true); benchmark generated from python API
(set-info :status unknown)
(declare-fun l_0_0_7 () Real)
(declare-fun l_0_0_1 () Real)
(declare-fun _a_0_ () Real)
(declare-fun l_0_0_5 () Real)
(declare-fun l_0_0_3 () Real)
(declare-fun l_0_0_4 () Real)
(declare-fun l_0_0_2 () Real)
(declare-fun l_0_0_9 () Real)
(declare-fun l_0_0_11 () Real)
(declare-fun l_0_0_8 () Real)
(declare-fun l_0_0_10 () Real)
(declare-fun _a_1_ () Real)
(declare-fun l_0_0_6 () Real)
(declare-fun l_0_0_12 () Real)
(declare-fun _a_2_ () Real)
(declare-fun _a_3_ () Real)
(declare-fun l_0_1_7 () Real)
(declare-fun l_0_1_13 () Real)
(declare-fun l_0_1_1 () Real)
(declare-fun l_0_1_9 () Real)
(declare-fun l_0_1_8 () Real)
(declare-fun l_0_1_15 () Real)
(declare-fun l_0_1_14 () Real)
(declare-fun l_0_1_3 () Real)
(declare-fun l_0_1_2 () Real)
(declare-fun l_0_1_16 () Real)
(declare-fun l_0_1_10 () Real)
(declare-fun l_0_1_4 () Real)
(declare-fun l_0_1_17 () Real)
(declare-fun l_0_1_11 () Real)
(declare-fun l_0_1_5 () Real)
(declare-fun l_0_1_18 () Real)
(declare-fun l_0_1_12 () Real)
(declare-fun l_0_1_6 () Real)
(declare-fun l_0_2_7 () Real)
(declare-fun l_0_2_13 () Real)
(declare-fun l_0_2_1 () Real)
(declare-fun l_0_2_18 () Real)
(declare-fun l_0_2_17 () Real)
(declare-fun l_0_2_16 () Real)
(declare-fun l_0_2_12 () Real)
(declare-fun l_0_2_11 () Real)
(declare-fun l_0_2_10 () Real)
(declare-fun l_0_2_6 () Real)
(declare-fun l_0_2_5 () Real)
(declare-fun l_0_2_4 () Real)
(declare-fun l_0_2_15 () Real)
(declare-fun l_0_2_14 () Real)
(declare-fun l_0_2_9 () Real)
(declare-fun l_0_2_8 () Real)
(declare-fun l_0_2_3 () Real)
(declare-fun l_0_2_2 () Real)
(assert
 (let ((?x61 (* l_0_0_7 l_0_0_7)))
 (= (- (- _a_0_ (* (* (/ 1.0 8.0) l_0_0_1) l_0_0_1)) ?x61) 0.0)))
(assert
 (let ((?x96 (* 2.0 l_0_0_1)))
 (let ((?x99 (* ?x96 l_0_0_4)))
 (let ((?x103 (- (- (- _a_1_ (* ?x96 l_0_0_2)) ?x99) (* (* 2.0 l_0_0_10) l_0_0_8))))
 (let ((?x110 (- (- ?x103 (* (* 2.0 l_0_0_11) l_0_0_9)) (* (* (/ 1.0 4.0) l_0_0_2) l_0_0_4))))
 (= (- ?x110 (* (* (/ 1.0 4.0) l_0_0_3) l_0_0_5)) 0.0))))))
(assert
 (let ((?x160 (* l_0_0_12 l_0_0_12)))
 (let ((?x158 (* l_0_0_11 l_0_0_11)))
 (let ((?x156 (* l_0_0_10 l_0_0_10)))
 (let ((?x83 (* l_0_0_1 l_0_0_1)))
 (let ((?x159 (- (- (+ (- _a_2_ (* (* 2.0 l_0_0_1) l_0_0_4)) ?x83) ?x156) ?x158)))
 (let ((?x167 (- (- (- ?x159 ?x160) (* (* (/ 1.0 8.0) l_0_0_4) l_0_0_4)) (* (* (/ 1.0 8.0) l_0_0_5) l_0_0_5))))
 (= (- ?x167 (* (* (/ 1.0 8.0) l_0_0_6) l_0_0_6)) 0.0))))))))
(assert
 (let ((?x213 (* l_0_0_9 l_0_0_9)))
 (let ((?x211 (* l_0_0_8 l_0_0_8)))
 (let ((?x83 (* l_0_0_1 l_0_0_1)))
 (let ((?x207 (- (+ (- _a_3_ (* (* 2.0 l_0_0_1) l_0_0_2)) ?x83) (* (* (/ 1.0 8.0) l_0_0_2) l_0_0_2))))
 (= (- (- (- ?x207 (* (* (/ 1.0 8.0) l_0_0_3) l_0_0_3)) ?x211) ?x213) 0.0))))))
(assert
 (let ((?x242 (* (* 1.0 l_0_0_1) l_0_0_1)))
 (let ((?x246 (- (- (* (* (- (/ 1.0 4.0)) l_0_0_1) l_0_0_2) ?x242) (* (* 2.0 l_0_0_7) l_0_0_8))))
 (= ?x246 0.0))))
(assert
 (let ((?x242 (* (* 1.0 l_0_0_1) l_0_0_1)))
 (let ((?x264 (- (- (* (* (- (/ 1.0 4.0)) l_0_0_1) l_0_0_4) ?x242) (* (* 2.0 l_0_0_10) l_0_0_7))))
 (= ?x264 0.0))))
(assert
 (let ((?x291 (* (* 1.0 l_0_0_6) l_0_0_6)))
 (let ((?x288 (* (* 1.0 l_0_0_5) l_0_0_5)))
 (let ((?x285 (* (* 1.0 l_0_0_4) l_0_0_4)))
 (let ((?x282 (* (* 2.0 l_0_0_3) l_0_0_5)))
 (let ((?x279 (* (* 2.0 l_0_0_2) l_0_0_4)))
 (let ((?x96 (* 2.0 l_0_0_1)))
 (let ((?x97 (* ?x96 l_0_0_2)))
 (= (- (- (- (- (- ?x97 ?x279) ?x282) ?x285) ?x288) ?x291) 0.0)))))))))
(assert
 (let ((?x291 (* (* 1.0 l_0_0_6) l_0_0_6)))
 (let ((?x288 (* (* 1.0 l_0_0_5) l_0_0_5)))
 (let ((?x285 (* (* 1.0 l_0_0_4) l_0_0_4)))
 (let ((?x96 (* 2.0 l_0_0_1)))
 (let ((?x99 (* ?x96 l_0_0_4)))
 (= (- (- (- ?x99 ?x285) ?x288) ?x291) 0.0)))))))
(assert
 (let ((?x196 (* l_0_0_6 l_0_0_6)))
 (let ((?x190 (* l_0_0_5 l_0_0_5)))
 (let ((?x184 (* l_0_0_4 l_0_0_4)))
 (let ((?x225 (* l_0_0_3 l_0_0_3)))
 (let ((?x219 (* l_0_0_2 l_0_0_2)))
 (let ((?x324 (+ ?x219 ?x225)))
 (= (+ (+ (+ ?x324 ?x184) ?x190) ?x196) 0.0))))))))
(assert
 (let ((?x282 (* (* 2.0 l_0_0_3) l_0_0_5)))
 (let ((?x279 (* (* 2.0 l_0_0_2) l_0_0_4)))
 (= (+ ?x279 ?x282) 0.0))))
(assert
 (let ((?x196 (* l_0_0_6 l_0_0_6)))
 (= (+ (+ (* l_0_0_4 l_0_0_4) (* l_0_0_5 l_0_0_5)) ?x196) 0.0)))
(assert
 (let ((?x346 (* (* 1.0 l_0_0_3) l_0_0_3)))
 (let ((?x282 (* (* 2.0 l_0_0_3) l_0_0_5)))
 (let ((?x342 (* (* 1.0 l_0_0_2) l_0_0_2)))
 (let ((?x279 (* (* 2.0 l_0_0_2) l_0_0_4)))
 (let ((?x96 (* 2.0 l_0_0_1)))
 (let ((?x99 (* ?x96 l_0_0_4)))
 (= (- (- (- (- ?x99 ?x279) ?x342) ?x282) ?x346) 0.0))))))))
(assert
 (let ((?x346 (* (* 1.0 l_0_0_3) l_0_0_3)))
 (let ((?x342 (* (* 1.0 l_0_0_2) l_0_0_2)))
 (let ((?x96 (* 2.0 l_0_0_1)))
 (let ((?x97 (* ?x96 l_0_0_2)))
 (= (- (- ?x97 ?x342) ?x346) 0.0))))))
(assert
 (let ((?x225 (* l_0_0_3 l_0_0_3)))
 (let ((?x219 (* l_0_0_2 l_0_0_2)))
 (let ((?x324 (+ ?x219 ?x225)))
 (= ?x324 0.0)))))
(assert
 (let ((?x282 (* (* 2.0 l_0_0_3) l_0_0_5)))
 (let ((?x279 (* (* 2.0 l_0_0_2) l_0_0_4)))
 (= (+ ?x279 ?x282) 0.0))))
(assert
 (>= l_0_0_1 0.0))
(assert
 (>= l_0_0_3 0.0))
(assert
 (>= l_0_0_6 0.0))
(assert
 (>= l_0_0_7 0.0))
(assert
 (>= l_0_0_9 0.0))
(assert
 (>= l_0_0_12 0.0))
(assert
 (let ((?x381 (+ (- (* (* (- _a_0_) l_0_1_1) l_0_1_1) (* l_0_1_13 l_0_1_13)) (* 1.0 (* l_0_1_7 l_0_1_7)))))
 (= (+ ?x381 4.0) 0.0)))
(assert
 (let ((?x403 (* l_0_1_15 l_0_1_15)))
 (let ((?x401 (* l_0_1_14 l_0_1_14)))
 (let ((?x400 (- (* (- _a_0_) (+ (* l_0_1_2 l_0_1_2) (* l_0_1_3 l_0_1_3))) (* (* _a_3_ l_0_1_1) l_0_1_1))))
 (let ((?x410 (+ (+ (- (- ?x400 ?x401) ?x403) (* 1.0 (* l_0_1_8 l_0_1_8))) (* 1.0 (* l_0_1_9 l_0_1_9)))))
 (= (- ?x410 1.0) 0.0))))))
(assert
 (let ((?x441 (- (* (* (* (- 2.0) _a_0_) l_0_1_1) l_0_1_2) (* (* 2.0 l_0_1_13) l_0_1_14))))
 (= (+ ?x441 (* (* 2.0 l_0_1_7) l_0_1_8)) 0.0)))
(assert
 (let ((?x462 (+ (* (* (* (- 2.0) _a_0_) l_0_1_1) l_0_1_4) (* (* 2.0 l_0_1_10) l_0_1_7))))
 (= (- ?x462 (* (* 2.0 l_0_1_13) l_0_1_16)) 0.0)))
(assert
 (let ((?x487 (+ (* (* 2.0 l_0_1_2) l_0_1_4) (* (* 2.0 l_0_1_3) l_0_1_5))))
 (let ((?x374 (- _a_0_)))
 (let ((?x493 (+ (- (* ?x374 ?x487) (* (* _a_1_ l_0_1_1) l_0_1_1)) (* (* 2.0 l_0_1_10) l_0_1_8))))
 (let ((?x499 (- (+ ?x493 (* (* 2.0 l_0_1_11) l_0_1_9)) (* (* 2.0 l_0_1_14) l_0_1_16))))
 (= (- ?x499 (* (* 2.0 l_0_1_15) l_0_1_17)) 0.0))))))
(assert
 (let ((?x560 (* l_0_1_18 l_0_1_18)))
 (let ((?x558 (* l_0_1_17 l_0_1_17)))
 (let ((?x556 (* l_0_1_16 l_0_1_16)))
 (let ((?x541 (* l_0_1_6 l_0_1_6)))
 (let ((?x542 (+ (+ (* l_0_1_4 l_0_1_4) (* l_0_1_5 l_0_1_5)) ?x541)))
 (let ((?x374 (- _a_0_)))
 (let ((?x549 (+ (- (* ?x374 ?x542) (* (* _a_2_ l_0_1_1) l_0_1_1)) (* 1.0 (* l_0_1_10 l_0_1_10)))))
 (let ((?x555 (+ (+ ?x549 (* 1.0 (* l_0_1_11 l_0_1_11))) (* 1.0 (* l_0_1_12 l_0_1_12)))))
 (= (- (- (- ?x555 ?x556) ?x558) ?x560) 0.0))))))))))
(assert
 (let ((?x591 (- (* (* (* (- 2.0) _a_1_) l_0_1_1) l_0_1_2) (* (* (* 2.0 _a_3_) l_0_1_1) l_0_1_4))))
 (= ?x591 0.0)))
(assert
 (let ((?x608 (- (* (* (* (- 2.0) _a_1_) l_0_1_1) l_0_1_4) (* (* (* 2.0 _a_2_) l_0_1_1) l_0_1_2))))
 (= ?x608 0.0)))
(assert
 (let ((?x487 (+ (* (* 2.0 l_0_1_2) l_0_1_4) (* (* 2.0 l_0_1_3) l_0_1_5))))
 (let ((?x625 (- (* (- _a_1_) (+ (* l_0_1_2 l_0_1_2) (* l_0_1_3 l_0_1_3))) (* _a_3_ ?x487))))
 (= ?x625 0.0))))
(assert
 (let ((?x541 (* l_0_1_6 l_0_1_6)))
 (let ((?x542 (+ (+ (* l_0_1_4 l_0_1_4) (* l_0_1_5 l_0_1_5)) ?x541)))
 (let ((?x487 (+ (* (* 2.0 l_0_1_2) l_0_1_4) (* (* 2.0 l_0_1_3) l_0_1_5))))
 (let ((?x622 (- _a_1_)))
 (let ((?x655 (- (* ?x622 ?x487) (* _a_2_ (+ (* l_0_1_2 l_0_1_2) (* l_0_1_3 l_0_1_3))))))
 (= (- ?x655 (* _a_3_ ?x542)) 0.0)))))))
(assert
 (let ((?x487 (+ (* (* 2.0 l_0_1_2) l_0_1_4) (* (* 2.0 l_0_1_3) l_0_1_5))))
 (let ((?x541 (* l_0_1_6 l_0_1_6)))
 (let ((?x542 (+ (+ (* l_0_1_4 l_0_1_4) (* l_0_1_5 l_0_1_5)) ?x541)))
 (let ((?x622 (- _a_1_)))
 (= (- (* ?x622 ?x542) (* _a_2_ ?x487)) 0.0))))))
(assert
 (= (* (* (* (- 2.0) _a_2_) l_0_1_1) l_0_1_4) 0.0))
(assert
 (let ((?x541 (* l_0_1_6 l_0_1_6)))
 (let ((?x542 (+ (+ (* l_0_1_4 l_0_1_4) (* l_0_1_5 l_0_1_5)) ?x541)))
 (let ((?x730 (- _a_2_)))
 (= (* ?x730 ?x542) 0.0)))))
(assert
 (= (* (* (* (- 2.0) _a_3_) l_0_1_1) l_0_1_2) 0.0))
(assert
 (= (* (- _a_3_) (+ (* l_0_1_2 l_0_1_2) (* l_0_1_3 l_0_1_3))) 0.0))
(assert
 (>= l_0_1_1 0.0))
(assert
 (>= l_0_1_3 0.0))
(assert
 (>= l_0_1_6 0.0))
(assert
 (>= l_0_1_7 0.0))
(assert
 (>= l_0_1_9 0.0))
(assert
 (>= l_0_1_12 0.0))
(assert
 (>= l_0_1_13 0.0))
(assert
 (>= l_0_1_15 0.0))
(assert
 (>= l_0_1_18 0.0))
(assert
 (let ((?x772 (* l_0_2_13 l_0_2_13)))
 (let ((?x776 (- (- (+ (* (* (- _a_0_) l_0_2_1) l_0_2_1) _a_0_) ?x772) (* (* 1.0 l_0_2_7) l_0_2_7))))
 (= ?x776 0.0))))
(assert
 (let ((?x820 (* l_0_2_18 l_0_2_18)))
 (let ((?x818 (* l_0_2_17 l_0_2_17)))
 (let ((?x816 (* l_0_2_16 l_0_2_16)))
 (let ((?x805 (* (/ 1.0 100.0) _a_3_)))
 (let ((?x802 (* (/ 790123456790123.0 1000000000000000.0) _a_2_)))
 (let ((?x796 (* (/ 888888888888889.0 10000000000000000.0) _a_1_)))
 (let ((?x792 (* l_0_2_6 l_0_2_6)))
 (let ((?x793 (+ (+ (* l_0_2_4 l_0_2_4) (* l_0_2_5 l_0_2_5)) ?x792)))
 (let ((?x374 (- _a_0_)))
 (let ((?x803 (+ (- (+ (* ?x374 ?x793) ?x796) (* (* _a_2_ l_0_2_1) l_0_2_1)) ?x802)))
 (let ((?x812 (- (- (+ ?x803 ?x805) (* (* 1.0 l_0_2_10) l_0_2_10)) (* (* 1.0 l_0_2_11) l_0_2_11))))
 (let ((?x821 (- (- (- (- ?x812 (* (* 1.0 l_0_2_12) l_0_2_12)) ?x816) ?x818) ?x820)))
 (= ?x821 0.0))))))))))))))
(assert
 (let ((?x874 (* (/ 9.0 50.0) _a_3_)))
 (let ((?x871 (* (/ 493827160493827.0 5000000000000000.0) _a_2_)))
 (let ((?x868 (* (/ 198611111111111.0 250000000000000.0) _a_1_)))
 (let ((?x862 (+ (* (* 2.0 l_0_2_2) l_0_2_4) (* (* 2.0 l_0_2_3) l_0_2_5))))
 (let ((?x374 (- _a_0_)))
 (let ((?x872 (- (+ (- (* ?x374 ?x862) (* (* _a_1_ l_0_2_1) l_0_2_1)) ?x868) ?x871)))
 (let ((?x881 (- (- (+ ?x872 ?x874) (* (* 2.0 l_0_2_10) l_0_2_8)) (* (* 2.0 l_0_2_11) l_0_2_9))))
 (let ((?x887 (- (- ?x881 (* (* 2.0 l_0_2_14) l_0_2_16)) (* (* 2.0 l_0_2_15) l_0_2_17))))
 (= ?x887 0.0))))))))))
(assert
 (let ((?x952 (* l_0_2_15 l_0_2_15)))
 (let ((?x950 (* l_0_2_14 l_0_2_14)))
 (let ((?x948 (* (/ 81.0 100.0) _a_3_)))
 (let ((?x942 (* (/ 154320987654321.0 50000000000000000.0) _a_2_)))
 (let ((?x939 (* (/ 1.0 20.0) _a_1_)))
 (let ((?x940 (- (* (- _a_0_) (+ (* l_0_2_2 l_0_2_2) (* l_0_2_3 l_0_2_3))) ?x939)))
 (let ((?x951 (- (+ (- (+ ?x940 ?x942) (* (* _a_3_ l_0_2_1) l_0_2_1)) ?x948) ?x950)))
 (let ((?x959 (- (- (- ?x951 ?x952) (* (* 1.0 l_0_2_8) l_0_2_8)) (* (* 1.0 l_0_2_9) l_0_2_9))))
 (= ?x959 0.0))))))))))
(assert
 (let ((?x1001 (- (* (* (* (- 2.0) _a_0_) l_0_2_1) l_0_2_2) (* (* 2.0 l_0_2_13) l_0_2_14))))
 (= (- ?x1001 (* (* 2.0 l_0_2_7) l_0_2_8)) 0.0)))
(assert
 (let ((?x1025 (- (* (* (* (- 2.0) _a_0_) l_0_2_1) l_0_2_4) (* (* 2.0 l_0_2_10) l_0_2_7))))
 (= (- ?x1025 (* (* 2.0 l_0_2_13) l_0_2_16)) 0.0)))
(assert
 (let ((?x1052 (- (* (* (* (- 2.0) _a_1_) l_0_2_1) l_0_2_2) (* (* (* 2.0 _a_3_) l_0_2_1) l_0_2_4))))
 (= ?x1052 0.0)))
(assert
 (let ((?x1068 (- (* (* (* (- 2.0) _a_1_) l_0_2_1) l_0_2_4) (* (* (* 2.0 _a_2_) l_0_2_1) l_0_2_2))))
 (= ?x1068 0.0)))
(assert
 (let ((?x862 (+ (* (* 2.0 l_0_2_2) l_0_2_4) (* (* 2.0 l_0_2_3) l_0_2_5))))
 (let ((?x1084 (- (* (- _a_1_) (+ (* l_0_2_2 l_0_2_2) (* l_0_2_3 l_0_2_3))) (* _a_3_ ?x862))))
 (= ?x1084 0.0))))
(assert
 (let ((?x792 (* l_0_2_6 l_0_2_6)))
 (let ((?x793 (+ (+ (* l_0_2_4 l_0_2_4) (* l_0_2_5 l_0_2_5)) ?x792)))
 (let ((?x862 (+ (* (* 2.0 l_0_2_2) l_0_2_4) (* (* 2.0 l_0_2_3) l_0_2_5))))
 (let ((?x622 (- _a_1_)))
 (let ((?x1113 (- (* ?x622 ?x862) (* _a_2_ (+ (* l_0_2_2 l_0_2_2) (* l_0_2_3 l_0_2_3))))))
 (= (- ?x1113 (* _a_3_ ?x793)) 0.0)))))))
(assert
 (let ((?x862 (+ (* (* 2.0 l_0_2_2) l_0_2_4) (* (* 2.0 l_0_2_3) l_0_2_5))))
 (let ((?x792 (* l_0_2_6 l_0_2_6)))
 (let ((?x793 (+ (+ (* l_0_2_4 l_0_2_4) (* l_0_2_5 l_0_2_5)) ?x792)))
 (let ((?x622 (- _a_1_)))
 (= (- (* ?x622 ?x793) (* _a_2_ ?x862)) 0.0))))))
(assert
 (= (* (* (* (- 2.0) _a_2_) l_0_2_1) l_0_2_4) 0.0))
(assert
 (let ((?x792 (* l_0_2_6 l_0_2_6)))
 (let ((?x793 (+ (+ (* l_0_2_4 l_0_2_4) (* l_0_2_5 l_0_2_5)) ?x792)))
 (let ((?x730 (- _a_2_)))
 (= (* ?x730 ?x793) 0.0)))))
(assert
 (= (* (* (* (- 2.0) _a_3_) l_0_2_1) l_0_2_2) 0.0))
(assert
 (= (* (- _a_3_) (+ (* l_0_2_2 l_0_2_2) (* l_0_2_3 l_0_2_3))) 0.0))
(assert
 (>= l_0_2_1 0.0))
(assert
 (>= l_0_2_3 0.0))
(assert
 (>= l_0_2_6 0.0))
(assert
 (>= l_0_2_7 0.0))
(assert
 (>= l_0_2_9 0.0))
(assert
 (>= l_0_2_12 0.0))
(assert
 (>= l_0_2_13 0.0))
(assert
 (>= l_0_2_15 0.0))
(assert
 (>= l_0_2_18 0.0))
(check-sat)
(get-model)